6084.0
0 1 0 1 1 0 1 0 0 0 0 1 0 1 0 1 1 0 1 0 
1 19 1 1 1 1 1 1 1 3 3 3 3 3 3 4 4 4 4 4 4 4 4 4 6 6 6 6 6 6 6 9 13 13 11 9 9 9 9 9 9 9 11 11 11 11 11 11 13 13 13 13 13 13 13 15 15 11 15 13 17 15 15 15 15 17 17 17 17 17 17 17 17 19 19 19 19 19 19 19 